c Sudoku solution
p cnf 729 0
163 0
242 0
276 0
336 0
357 0
388 0
395 0
483 0
565 0
581 0
599 0
612 0
641 0
658 0
674 0
745 0
814 0
829 0
885 0
475 0
922 0
132 0
372 0
293 0
492 0
578 0
552 0
543 0
782 0
862 0
937 0
915 0
534 0
951 0
973 0
964 0
794 0
998 0
526 0
517 0
716 0
313 0
361 0
324 0
349 0
268 0
848 0
767 0
447 0
454 0
466 0
669 0
144 0
255 0
156 0
284 0
125 0
227 0
118 0
623 0
635 0
946 0
853 0
759 0
733 0
831 0
728 0
771 0
877 0
896 0
989 0
421 0
419 0
438 0
211 0
239 0
191 0
179 0
187 0
686 0
697 0
